10	5
0	4	1	2	5	3
1	2	9	6
2	1	7
3	4	7	10	6	4
4	1	8
5	2	6	4
6	1	11
7	1	11
8	1	11
9	1	11
10	1	11
11	0
0	0	0	0	0	0	0
1	3	5	4	2	3	2
2	9	4	3	3	4	2
3	1	4	3	2	1	1
4	1	2	5	4	5	3
5	5	5	5	1	4	1
6	10	2	2	3	1	5
7	10	4	4	1	5	2
8	5	4	4	1	2	4
9	8	1	4	1	1	5
10	7	3	4	3	1	2
11	0	0	0	0	0	0
5	5	5	5	5
